100.0
20
22.75,83.58
33.92,76.74
22.58,29.68
25.37,46.79
9.25,67.19
37.56,52.95
86.97,1.89
13.96,16.41
89.52,98.57
89.55,79.3
19.06,93.83
51.2,84.64
15.66,3.6
82.16,37.57
56.08,41.8
58.93,15.44
73.54,29.36
32.21,40.46
49.43,26.72
3.43,14.81
